p cnf 433 1232
1 2 3 4 5 6 7 8 36 13 15 19 22 25 29 31 0
1 2 3 4 5 6 7 8 9 14 16 20 23 26 30 32 0
1 2 3 4 5 6 33 8 9 10 13 15 17 21 24 27 0
1 2 3 4 5 6 34 9 10 11 14 16 18 19 22 28 0
1 2 3 4 5 6 35 10 11 12 15 17 20 23 25 29 0
1 2 3 4 5 6 36 11 12 16 18 21 24 26 30 31 0
1 2 35 7 8 9 10 11 12 13 14 19 21 25 28 31 0
1 2 3 36 7 8 9 10 11 12 13 14 15 20 22 26 29 32 0
33 2 3 4 7 8 9 10 11 12 14 15 16 19 21 23 27 30 0
34 3 4 5 7 8 9 10 11 12 15 16 17 20 22 24 25 28 0
35 4 5 6 7 8 9 10 11 12 16 17 18 21 23 26 29 31 0
36 5 6 7 8 9 10 11 12 17 18 22 24 27 30 32 0
1 34 3 7 8 13 14 15 16 17 18 19 20 25 27 31 0
2 35 4 7 8 9 13 14 15 16 17 18 19 20 21 26 28 32 0
1 3 5 8 9 10 13 14 15 16 17 18 20 21 22 25 27 29 33 36 0
2 4 6 9 10 11 13 14 15 16 17 18 21 22 23 26 28 30 31 34 0
35 3 5 10 11 12 13 14 15 16 17 18 22 23 24 27 29 32 0
33 36 4 6 11 12 13 14 15 16 17 18 23 24 28 30 0
1 33 4 7 9 13 14 19 20 21 22 23 24 25 26 31 0
2 34 5 8 10 13 14 15 19 20 21 22 23 24 25 26 27 32 0
3 6 7 9 11 14 15 16 19 20 21 22 23 24 26 27 28 31 33 35 0
1 4 8 10 12 15 16 17 19 20 21 22 23 24 27 28 29 32 34 36 0
33 2 35 5 9 11 16 17 18 19 20 21 22 23 24 28 29 30 0
34 3 36 6 10 12 17 18 19 20 21 22 23 24 29 30 0
1 5 7 10 13 15 19 20 25 26 27 28 29 30 31 32 0
33 2 6 8 11 14 16 19 20 21 25 26 27 28 29 30 31 32 0
33 34 3 9 12 13 15 17 20 21 22 25 26 27 28 29 30 32 0
33 34 35 4 7 10 14 16 18 21 22 23 25 26 27 28 29 30 0
1 34 35 36 5 8 11 15 17 22 23 24 25 26 27 28 29 30 0
2 35 36 6 9 12 16 18 23 24 25 26 27 28 29 30 0
33 34 35 36 1 6 7 11 13 16 19 21 25 26 31 32 0
33 34 35 36 2 8 12 14 17 20 22 25 26 27 31 32 0
33 34 35 36 3 9 15 18 19 21 23 26 27 28 31 32 0
33 34 35 36 4 10 13 16 20 22 24 27 28 29 31 32 0
33 34 35 36 5 7 11 14 17 21 23 28 29 30 31 32 0
33 34 35 36 1 6 8 12 15 18 22 24 29 30 31 32 0
-1 -17 -27 0
-6 -14 -28 0
-31 -23 -9 0
-36 -10 -20 0
-59 43 64 0
-60 44 64 0
-61 45 64 0
-62 46 64 0
-63 47 64 0
-51 43 64 0
-52 44 64 0
-53 45 64 0
-54 46 64 0
-55 47 64 0
-51 -59 44 64 0
-51 -60 45 64 0
-51 -61 46 64 0
-51 -62 47 64 0
-51 -63 64 0
-52 -59 45 64 0
-52 -60 46 64 0
-52 -61 47 64 0
-52 -62 64 0
-52 -63 43 0
-53 -59 46 64 0
-53 -60 47 64 0
-53 -61 64 0
-53 -62 43 0
-53 -63 44 0
-54 -59 47 64 0
-54 -60 64 0
-54 -61 43 0
-54 -62 44 0
-54 -63 45 0
-55 -59 64 0
-55 -60 43 0
-55 -61 44 0
-55 -62 45 0
-55 -63 46 0
-64 37 0
-56 37 0
-64 -56 38 0
-57 38 0
-64 -57 39 0
-58 39 0
-64 -58 40 0
-48 37 0
-64 -48 38 0
-49 38 0
-64 -49 39 0
-50 39 0
-64 -50 40 0
-48 -56 38 0
-64 -48 -56 39 0
-48 -57 39 0
-64 -48 -57 40 0
-48 -58 40 0
-64 -48 -58 41 0
-49 -56 39 0
-64 -49 -56 40 0
-49 -57 40 0
-64 -49 -57 41 0
-49 -58 41 0
-64 -49 -58 42 0
-50 -56 40 0
-64 -50 -56 41 0
-50 -57 41 0
-64 -50 -57 42 0
-50 -58 42 0
-64 -50 -58 0
-72 59 77 0
-73 60 77 0
-74 61 77 0
-75 62 77 0
-76 63 77 0
-66 59 77 0
-67 60 77 0
-68 61 77 0
-69 62 77 0
-70 63 77 0
-66 -72 60 77 0
-66 -73 61 77 0
-66 -74 62 77 0
-66 -75 63 77 0
-66 -76 77 0
-67 -72 61 77 0
-67 -73 62 77 0
-67 -74 63 77 0
-67 -75 77 0
-67 -76 59 0
-68 -72 62 77 0
-68 -73 63 77 0
-68 -74 77 0
-68 -75 59 0
-68 -76 60 0
-69 -72 63 77 0
-69 -73 77 0
-69 -74 59 0
-69 -75 60 0
-69 -76 61 0
-70 -72 77 0
-70 -73 59 0
-70 -74 60 0
-70 -75 61 0
-70 -76 62 0
-77 56 0
-71 56 0
-77 -71 57 0
-65 56 0
-77 -65 57 0
-65 -71 57 0
-77 -65 -71 58 0
-86 78 0
-87 79 0
-83 78 0
-84 79 0
-85 80 0
-83 -86 79 0
-83 -87 80 0
-84 -86 80 0
-84 -87 81 0
-85 -86 81 0
-85 -87 82 0
-33 86 0
-27 86 0
-27 -33 87 0
-28 83 0
-88 83 0
-89 84 0
-88 -28 84 0
-89 -28 85 0
-34 88 0
-30 88 0
-30 -34 89 0
-96 90 0
-97 91 0
-94 90 0
-95 91 0
-94 -96 91 0
-94 -97 92 0
-95 -96 92 0
-95 -97 93 0
-31 96 0
-25 96 0
-25 -31 97 0
-26 94 0
-32 94 0
-32 -26 95 0
-90 72 98 0
-91 73 98 0
-92 74 98 0
-93 75 98 0
-78 72 98 0
-79 73 98 0
-80 74 98 0
-81 75 98 0
-82 76 98 0
-78 -90 73 98 0
-78 -91 74 98 0
-78 -92 75 98 0
-78 -93 76 98 0
-79 -90 74 98 0
-79 -91 75 98 0
-79 -92 76 98 0
-79 -93 98 0
-80 -90 75 98 0
-80 -91 76 98 0
-80 -92 98 0
-80 -93 72 0
-81 -90 76 98 0
-81 -91 98 0
-81 -92 72 0
-81 -93 73 0
-82 -90 98 0
-82 -91 72 0
-82 -92 73 0
-82 -93 74 0
-98 71 0
-107 99 0
-108 100 0
-104 99 0
-105 100 0
-106 101 0
-104 -107 100 0
-104 -108 101 0
-105 -107 101 0
-105 -108 102 0
-106 -107 102 0
-106 -108 103 0
-17 107 0
-18 107 0
-18 -17 108 0
-24 104 0
-109 104 0
-110 105 0
-109 -24 105 0
-110 -24 106 0
-6 109 0
-12 109 0
-12 -6 110 0
-117 111 0
-118 112 0
-115 111 0
-116 112 0
-115 -117 112 0
-115 -118 113 0
-116 -117 113 0
-116 -118 114 0
-36 117 0
-35 117 0
-35 -36 118 0
-29 115 0
-23 115 0
-23 -29 116 0
-111 66 119 0
-112 67 119 0
-113 68 119 0
-114 69 119 0
-99 66 119 0
-100 67 119 0
-101 68 119 0
-102 69 119 0
-103 70 119 0
-99 -111 67 119 0
-99 -112 68 119 0
-99 -113 69 119 0
-99 -114 70 119 0
-100 -111 68 119 0
-100 -112 69 119 0
-100 -113 70 119 0
-100 -114 119 0
-101 -111 69 119 0
-101 -112 70 119 0
-101 -113 119 0
-101 -114 66 0
-102 -111 70 119 0
-102 -112 119 0
-102 -113 66 0
-102 -114 67 0
-103 -111 119 0
-103 -112 66 0
-103 -113 67 0
-103 -114 68 0
-119 65 0
-127 51 132 0
-128 52 132 0
-129 53 132 0
-130 54 132 0
-131 55 132 0
-121 51 132 0
-122 52 132 0
-123 53 132 0
-124 54 132 0
-125 55 132 0
-121 -127 52 132 0
-121 -128 53 132 0
-121 -129 54 132 0
-121 -130 55 132 0
-121 -131 132 0
-122 -127 53 132 0
-122 -128 54 132 0
-122 -129 55 132 0
-122 -130 132 0
-122 -131 51 0
-123 -127 54 132 0
-123 -128 55 132 0
-123 -129 132 0
-123 -130 51 0
-123 -131 52 0
-124 -127 55 132 0
-124 -128 132 0
-124 -129 51 0
-124 -130 52 0
-124 -131 53 0
-125 -127 132 0
-125 -128 51 0
-125 -129 52 0
-125 -130 53 0
-125 -131 54 0
-132 48 0
-126 48 0
-132 -126 49 0
-120 48 0
-132 -120 49 0
-120 -126 49 0
-132 -120 -126 50 0
-141 133 0
-142 134 0
-138 133 0
-139 134 0
-140 135 0
-138 -141 134 0
-138 -142 135 0
-139 -141 135 0
-139 -142 136 0
-140 -141 136 0
-140 -142 137 0
-9 141 0
-10 141 0
-10 -9 142 0
-16 138 0
-143 138 0
-144 139 0
-143 -16 139 0
-144 -16 140 0
-22 143 0
-21 143 0
-21 -22 144 0
-151 145 0
-152 146 0
-149 145 0
-150 146 0
-149 -151 146 0
-149 -152 147 0
-150 -151 147 0
-150 -152 148 0
-11 151 0
-5 151 0
-5 -11 152 0
-4 149 0
-3 149 0
-3 -4 150 0
-145 127 153 0
-146 128 153 0
-147 129 153 0
-148 130 153 0
-133 127 153 0
-134 128 153 0
-135 129 153 0
-136 130 153 0
-137 131 153 0
-133 -145 128 153 0
-133 -146 129 153 0
-133 -147 130 153 0
-133 -148 131 153 0
-134 -145 129 153 0
-134 -146 130 153 0
-134 -147 131 153 0
-134 -148 153 0
-135 -145 130 153 0
-135 -146 131 153 0
-135 -147 153 0
-135 -148 127 0
-136 -145 131 153 0
-136 -146 153 0
-136 -147 127 0
-136 -148 128 0
-137 -145 153 0
-137 -146 127 0
-137 -147 128 0
-137 -148 129 0
-153 126 0
-162 154 0
-163 155 0
-159 154 0
-160 155 0
-161 156 0
-159 -162 155 0
-159 -163 156 0
-160 -162 156 0
-160 -163 157 0
-161 -162 157 0
-161 -163 158 0
-13 162 0
-7 162 0
-7 -13 163 0
-8 159 0
-164 159 0
-165 160 0
-164 -8 160 0
-165 -8 161 0
-2 164 0
-1 164 0
-1 -2 165 0
-172 166 0
-173 167 0
-170 166 0
-171 167 0
-170 -172 167 0
-170 -173 168 0
-171 -172 168 0
-171 -173 169 0
-15 172 0
-14 172 0
-14 -15 173 0
-20 170 0
-19 170 0
-19 -20 171 0
-166 121 174 0
-167 122 174 0
-168 123 174 0
-169 124 174 0
-154 121 174 0
-155 122 174 0
-156 123 174 0
-157 124 174 0
-158 125 174 0
-154 -166 122 174 0
-154 -167 123 174 0
-154 -168 124 174 0
-154 -169 125 174 0
-155 -166 123 174 0
-155 -167 124 174 0
-155 -168 125 174 0
-155 -169 174 0
-156 -166 124 174 0
-156 -167 125 174 0
-156 -168 174 0
-156 -169 121 0
-157 -166 125 174 0
-157 -167 174 0
-157 -168 121 0
-157 -169 122 0
-158 -166 174 0
-158 -167 121 0
-158 -168 122 0
-158 -169 123 0
-174 120 0
-37 0
-38 0
-39 0
-40 0
-41 0
-42 0
-46 0
-47 0
175 0
211 0
176 6 -175 0
176 -1 -175 0
6 -1 -175 0
177 12 -176 0
177 -2 -176 0
12 -2 -176 0
178 18 -177 0
178 -3 -177 0
18 -3 -177 0
179 24 -178 0
179 -4 -178 0
24 -4 -178 0
180 30 -179 0
180 -5 -179 0
30 -5 -179 0
181 36 -180 0
181 -6 -180 0
36 -6 -180 0
182 5 -181 0
182 -7 -181 0
5 -7 -181 0
183 11 -182 0
183 -8 -182 0
11 -8 -182 0
184 17 -183 0
184 -9 -183 0
17 -9 -183 0
185 23 -184 0
185 -10 -184 0
23 -10 -184 0
186 29 -185 0
186 -11 -185 0
29 -11 -185 0
187 35 -186 0
187 -12 -186 0
35 -12 -186 0
188 4 -187 0
188 -13 -187 0
4 -13 -187 0
189 10 -188 0
189 -14 -188 0
10 -14 -188 0
190 16 -189 0
190 -15 -189 0
16 -15 -189 0
191 22 -190 0
191 -16 -190 0
22 -16 -190 0
192 28 -191 0
192 -17 -191 0
28 -17 -191 0
193 34 -192 0
193 -18 -192 0
34 -18 -192 0
194 3 -193 0
194 -19 -193 0
3 -19 -193 0
195 9 -194 0
195 -20 -194 0
9 -20 -194 0
196 15 -195 0
196 -21 -195 0
15 -21 -195 0
197 21 -196 0
197 -22 -196 0
21 -22 -196 0
198 27 -197 0
198 -23 -197 0
27 -23 -197 0
199 33 -198 0
199 -24 -198 0
33 -24 -198 0
200 2 -199 0
200 -25 -199 0
2 -25 -199 0
201 8 -200 0
201 -26 -200 0
8 -26 -200 0
202 14 -201 0
202 -27 -201 0
14 -27 -201 0
203 20 -202 0
203 -28 -202 0
20 -28 -202 0
204 26 -203 0
204 -29 -203 0
26 -29 -203 0
205 32 -204 0
205 -30 -204 0
32 -30 -204 0
206 1 -205 0
206 -31 -205 0
1 -31 -205 0
207 7 -206 0
207 -32 -206 0
7 -32 -206 0
208 13 -207 0
208 -33 -207 0
13 -33 -207 0
209 19 -208 0
209 -34 -208 0
19 -34 -208 0
210 25 -209 0
210 -35 -209 0
25 -35 -209 0
211 31 -210 0
211 -36 -210 0
31 -36 -210 0
212 0
248 0
213 36 -212 0
213 -1 -212 0
36 -1 -212 0
214 35 -213 0
214 -2 -213 0
35 -2 -213 0
215 34 -214 0
215 -3 -214 0
34 -3 -214 0
216 33 -215 0
216 -4 -215 0
33 -4 -215 0
217 32 -216 0
217 -5 -216 0
32 -5 -216 0
218 31 -217 0
218 -6 -217 0
31 -6 -217 0
219 30 -218 0
219 -7 -218 0
30 -7 -218 0
220 29 -219 0
220 -8 -219 0
29 -8 -219 0
221 28 -220 0
221 -9 -220 0
28 -9 -220 0
222 27 -221 0
222 -10 -221 0
27 -10 -221 0
223 26 -222 0
223 -11 -222 0
26 -11 -222 0
224 25 -223 0
224 -12 -223 0
25 -12 -223 0
225 24 -224 0
225 -13 -224 0
24 -13 -224 0
226 23 -225 0
226 -14 -225 0
23 -14 -225 0
227 22 -226 0
227 -15 -226 0
22 -15 -226 0
228 21 -227 0
228 -16 -227 0
21 -16 -227 0
229 20 -228 0
229 -17 -228 0
20 -17 -228 0
230 19 -229 0
230 -18 -229 0
19 -18 -229 0
231 18 -230 0
231 -19 -230 0
18 -19 -230 0
232 17 -231 0
232 -20 -231 0
17 -20 -231 0
233 16 -232 0
233 -21 -232 0
16 -21 -232 0
234 15 -233 0
234 -22 -233 0
15 -22 -233 0
235 14 -234 0
235 -23 -234 0
14 -23 -234 0
236 13 -235 0
236 -24 -235 0
13 -24 -235 0
237 12 -236 0
237 -25 -236 0
12 -25 -236 0
238 11 -237 0
238 -26 -237 0
11 -26 -237 0
239 10 -238 0
239 -27 -238 0
10 -27 -238 0
240 9 -239 0
240 -28 -239 0
9 -28 -239 0
241 8 -240 0
241 -29 -240 0
8 -29 -240 0
242 7 -241 0
242 -30 -241 0
7 -30 -241 0
243 6 -242 0
243 -31 -242 0
6 -31 -242 0
244 5 -243 0
244 -32 -243 0
5 -32 -243 0
245 4 -244 0
245 -33 -244 0
4 -33 -244 0
246 3 -245 0
246 -34 -245 0
3 -34 -245 0
247 2 -246 0
247 -35 -246 0
2 -35 -246 0
248 1 -247 0
248 -36 -247 0
1 -36 -247 0
249 0
285 0
250 31 -249 0
250 -1 -249 0
31 -1 -249 0
251 25 -250 0
251 -2 -250 0
25 -2 -250 0
252 19 -251 0
252 -3 -251 0
19 -3 -251 0
253 13 -252 0
253 -4 -252 0
13 -4 -252 0
254 7 -253 0
254 -5 -253 0
7 -5 -253 0
255 1 -254 0
255 -6 -254 0
1 -6 -254 0
256 32 -255 0
256 -7 -255 0
32 -7 -255 0
257 26 -256 0
257 -8 -256 0
26 -8 -256 0
258 20 -257 0
258 -9 -257 0
20 -9 -257 0
259 14 -258 0
259 -10 -258 0
14 -10 -258 0
260 8 -259 0
260 -11 -259 0
8 -11 -259 0
261 2 -260 0
261 -12 -260 0
2 -12 -260 0
262 33 -261 0
262 -13 -261 0
33 -13 -261 0
263 27 -262 0
263 -14 -262 0
27 -14 -262 0
264 21 -263 0
264 -15 -263 0
21 -15 -263 0
265 15 -264 0
265 -16 -264 0
15 -16 -264 0
266 9 -265 0
266 -17 -265 0
9 -17 -265 0
267 3 -266 0
267 -18 -266 0
3 -18 -266 0
268 34 -267 0
268 -19 -267 0
34 -19 -267 0
269 28 -268 0
269 -20 -268 0
28 -20 -268 0
270 22 -269 0
270 -21 -269 0
22 -21 -269 0
271 16 -270 0
271 -22 -270 0
16 -22 -270 0
272 10 -271 0
272 -23 -271 0
10 -23 -271 0
273 4 -272 0
273 -24 -272 0
4 -24 -272 0
274 35 -273 0
274 -25 -273 0
35 -25 -273 0
275 29 -274 0
275 -26 -274 0
29 -26 -274 0
276 23 -275 0
276 -27 -275 0
23 -27 -275 0
277 17 -276 0
277 -28 -276 0
17 -28 -276 0
278 11 -277 0
278 -29 -277 0
11 -29 -277 0
279 5 -278 0
279 -30 -278 0
5 -30 -278 0
280 36 -279 0
280 -31 -279 0
36 -31 -279 0
281 30 -280 0
281 -32 -280 0
30 -32 -280 0
282 24 -281 0
282 -33 -281 0
24 -33 -281 0
283 18 -282 0
283 -34 -282 0
18 -34 -282 0
284 12 -283 0
284 -35 -283 0
12 -35 -283 0
285 6 -284 0
285 -36 -284 0
6 -36 -284 0
286 0
322 0
287 6 -286 0
287 -1 -286 0
6 -1 -286 0
288 5 -287 0
288 -2 -287 0
5 -2 -287 0
289 4 -288 0
289 -3 -288 0
4 -3 -288 0
290 3 -289 0
290 -4 -289 0
3 -4 -289 0
291 2 -290 0
291 -5 -290 0
2 -5 -290 0
292 1 -291 0
292 -6 -291 0
1 -6 -291 0
293 12 -292 0
293 -7 -292 0
12 -7 -292 0
294 11 -293 0
294 -8 -293 0
11 -8 -293 0
295 10 -294 0
295 -9 -294 0
10 -9 -294 0
296 9 -295 0
296 -10 -295 0
9 -10 -295 0
297 8 -296 0
297 -11 -296 0
8 -11 -296 0
298 7 -297 0
298 -12 -297 0
7 -12 -297 0
299 18 -298 0
299 -13 -298 0
18 -13 -298 0
300 17 -299 0
300 -14 -299 0
17 -14 -299 0
301 16 -300 0
301 -15 -300 0
16 -15 -300 0
302 15 -301 0
302 -16 -301 0
15 -16 -301 0
303 14 -302 0
303 -17 -302 0
14 -17 -302 0
304 13 -303 0
304 -18 -303 0
13 -18 -303 0
305 24 -304 0
305 -19 -304 0
24 -19 -304 0
306 23 -305 0
306 -20 -305 0
23 -20 -305 0
307 22 -306 0
307 -21 -306 0
22 -21 -306 0
308 21 -307 0
308 -22 -307 0
21 -22 -307 0
309 20 -308 0
309 -23 -308 0
20 -23 -308 0
310 19 -309 0
310 -24 -309 0
19 -24 -309 0
311 30 -310 0
311 -25 -310 0
30 -25 -310 0
312 29 -311 0
312 -26 -311 0
29 -26 -311 0
313 28 -312 0
313 -27 -312 0
28 -27 -312 0
314 27 -313 0
314 -28 -313 0
27 -28 -313 0
315 26 -314 0
315 -29 -314 0
26 -29 -314 0
316 25 -315 0
316 -30 -315 0
25 -30 -315 0
317 36 -316 0
317 -31 -316 0
36 -31 -316 0
318 35 -317 0
318 -32 -317 0
35 -32 -317 0
319 34 -318 0
319 -33 -318 0
34 -33 -318 0
320 33 -319 0
320 -34 -319 0
33 -34 -319 0
321 32 -320 0
321 -35 -320 0
32 -35 -320 0
322 31 -321 0
322 -36 -321 0
31 -36 -321 0
323 0
359 0
324 31 -323 0
324 -1 -323 0
31 -1 -323 0
325 32 -324 0
325 -2 -324 0
32 -2 -324 0
326 33 -325 0
326 -3 -325 0
33 -3 -325 0
327 34 -326 0
327 -4 -326 0
34 -4 -326 0
328 35 -327 0
328 -5 -327 0
35 -5 -327 0
329 36 -328 0
329 -6 -328 0
36 -6 -328 0
330 25 -329 0
330 -7 -329 0
25 -7 -329 0
331 26 -330 0
331 -8 -330 0
26 -8 -330 0
332 27 -331 0
332 -9 -331 0
27 -9 -331 0
333 28 -332 0
333 -10 -332 0
28 -10 -332 0
334 29 -333 0
334 -11 -333 0
29 -11 -333 0
335 30 -334 0
335 -12 -334 0
30 -12 -334 0
336 19 -335 0
336 -13 -335 0
19 -13 -335 0
337 20 -336 0
337 -14 -336 0
20 -14 -336 0
338 21 -337 0
338 -15 -337 0
21 -15 -337 0
339 22 -338 0
339 -16 -338 0
22 -16 -338 0
340 23 -339 0
340 -17 -339 0
23 -17 -339 0
341 24 -340 0
341 -18 -340 0
24 -18 -340 0
342 13 -341 0
342 -19 -341 0
13 -19 -341 0
343 14 -342 0
343 -20 -342 0
14 -20 -342 0
344 15 -343 0
344 -21 -343 0
15 -21 -343 0
345 16 -344 0
345 -22 -344 0
16 -22 -344 0
346 17 -345 0
346 -23 -345 0
17 -23 -345 0
347 18 -346 0
347 -24 -346 0
18 -24 -346 0
348 7 -347 0
348 -25 -347 0
7 -25 -347 0
349 8 -348 0
349 -26 -348 0
8 -26 -348 0
350 9 -349 0
350 -27 -349 0
9 -27 -349 0
351 10 -350 0
351 -28 -350 0
10 -28 -350 0
352 11 -351 0
352 -29 -351 0
11 -29 -351 0
353 12 -352 0
353 -30 -352 0
12 -30 -352 0
354 1 -353 0
354 -31 -353 0
1 -31 -353 0
355 2 -354 0
355 -32 -354 0
2 -32 -354 0
356 3 -355 0
356 -33 -355 0
3 -33 -355 0
357 4 -356 0
357 -34 -356 0
4 -34 -356 0
358 5 -357 0
358 -35 -357 0
5 -35 -357 0
359 6 -358 0
359 -36 -358 0
6 -36 -358 0
360 0
396 0
361 1 -360 0
361 -1 -360 0
1 -1 -360 0
362 7 -361 0
362 -2 -361 0
7 -2 -361 0
363 13 -362 0
363 -3 -362 0
13 -3 -362 0
364 19 -363 0
364 -4 -363 0
19 -4 -363 0
365 25 -364 0
365 -5 -364 0
25 -5 -364 0
366 31 -365 0
366 -6 -365 0
31 -6 -365 0
367 2 -366 0
367 -7 -366 0
2 -7 -366 0
368 8 -367 0
368 -8 -367 0
8 -8 -367 0
369 14 -368 0
369 -9 -368 0
14 -9 -368 0
370 20 -369 0
370 -10 -369 0
20 -10 -369 0
371 26 -370 0
371 -11 -370 0
26 -11 -370 0
372 32 -371 0
372 -12 -371 0
32 -12 -371 0
373 3 -372 0
373 -13 -372 0
3 -13 -372 0
374 9 -373 0
374 -14 -373 0
9 -14 -373 0
375 15 -374 0
375 -15 -374 0
15 -15 -374 0
376 21 -375 0
376 -16 -375 0
21 -16 -375 0
377 27 -376 0
377 -17 -376 0
27 -17 -376 0
378 33 -377 0
378 -18 -377 0
33 -18 -377 0
379 4 -378 0
379 -19 -378 0
4 -19 -378 0
380 10 -379 0
380 -20 -379 0
10 -20 -379 0
381 16 -380 0
381 -21 -380 0
16 -21 -380 0
382 22 -381 0
382 -22 -381 0
22 -22 -381 0
383 28 -382 0
383 -23 -382 0
28 -23 -382 0
384 34 -383 0
384 -24 -383 0
34 -24 -383 0
385 5 -384 0
385 -25 -384 0
5 -25 -384 0
386 11 -385 0
386 -26 -385 0
11 -26 -385 0
387 17 -386 0
387 -27 -386 0
17 -27 -386 0
388 23 -387 0
388 -28 -387 0
23 -28 -387 0
389 29 -388 0
389 -29 -388 0
29 -29 -388 0
390 35 -389 0
390 -30 -389 0
35 -30 -389 0
391 6 -390 0
391 -31 -390 0
6 -31 -390 0
392 12 -391 0
392 -32 -391 0
12 -32 -391 0
393 18 -392 0
393 -33 -392 0
18 -33 -392 0
394 24 -393 0
394 -34 -393 0
24 -34 -393 0
395 30 -394 0
395 -35 -394 0
30 -35 -394 0
396 36 -395 0
396 -36 -395 0
36 -36 -395 0
397 0
433 0
398 36 -397 0
398 -1 -397 0
36 -1 -397 0
399 30 -398 0
399 -2 -398 0
30 -2 -398 0
400 24 -399 0
400 -3 -399 0
24 -3 -399 0
401 18 -400 0
401 -4 -400 0
18 -4 -400 0
402 12 -401 0
402 -5 -401 0
12 -5 -401 0
403 6 -402 0
403 -6 -402 0
6 -6 -402 0
404 35 -403 0
404 -7 -403 0
35 -7 -403 0
405 29 -404 0
405 -8 -404 0
29 -8 -404 0
406 23 -405 0
406 -9 -405 0
23 -9 -405 0
407 17 -406 0
407 -10 -406 0
17 -10 -406 0
408 11 -407 0
408 -11 -407 0
11 -11 -407 0
409 5 -408 0
409 -12 -408 0
5 -12 -408 0
410 34 -409 0
410 -13 -409 0
34 -13 -409 0
411 28 -410 0
411 -14 -410 0
28 -14 -410 0
412 22 -411 0
412 -15 -411 0
22 -15 -411 0
413 16 -412 0
413 -16 -412 0
16 -16 -412 0
414 10 -413 0
414 -17 -413 0
10 -17 -413 0
415 4 -414 0
415 -18 -414 0
4 -18 -414 0
416 33 -415 0
416 -19 -415 0
33 -19 -415 0
417 27 -416 0
417 -20 -416 0
27 -20 -416 0
418 21 -417 0
418 -21 -417 0
21 -21 -417 0
419 15 -418 0
419 -22 -418 0
15 -22 -418 0
420 9 -419 0
420 -23 -419 0
9 -23 -419 0
421 3 -420 0
421 -24 -420 0
3 -24 -420 0
422 32 -421 0
422 -25 -421 0
32 -25 -421 0
423 26 -422 0
423 -26 -422 0
26 -26 -422 0
424 20 -423 0
424 -27 -423 0
20 -27 -423 0
425 14 -424 0
425 -28 -424 0
14 -28 -424 0
426 8 -425 0
426 -29 -425 0
8 -29 -425 0
427 2 -426 0
427 -30 -426 0
2 -30 -426 0
428 31 -427 0
428 -31 -427 0
31 -31 -427 0
429 25 -428 0
429 -32 -428 0
25 -32 -428 0
430 19 -429 0
430 -33 -429 0
19 -33 -429 0
431 13 -430 0
431 -34 -430 0
13 -34 -430 0
432 7 -431 0
432 -35 -431 0
7 -35 -431 0
433 1 -432 0
433 -36 -432 0
1 -36 -432 0
